D = 2;
n = [ 3 3 ];
N = 9;
d = [1 1 1 1 2 2 2 2 2 ];
m = [
[1.00 0.49 0.10 0.54 0.77 0.24 0.18 0.97 0.46 ]
[0.49 1.00 0.89 0.41 0.92 0.60 0.11 0.51 0.34 ]
[0.10 0.89 1.00 0.71 0.77 0.04 0.74 0.02 0.00 ]
[0.54 0.41 0.71 1.00 0.41 0.33 0.45 0.10 0.28 ]
[0.77 0.92 0.77 0.41 1.00 1.00 0.10 0.49 0.74 ]
[0.24 0.60 0.04 0.33 1.00 1.00 0.83 0.25 0.59 ]
[0.18 0.11 0.74 0.45 0.10 0.83 1.00 0.12 0.78 ]
[0.97 0.51 0.02 0.10 0.49 0.25 0.12 1.00 0.53 ]
[0.46 0.34 0.00 0.28 0.74 0.59 0.78 0.53 1.00 ]
];
